Route #1: 1 11 10 36 2 17 14 24
Route #2: 43 13 42 30 5
Route #3: 16 25 26 6 18 34 29
Route #4: 20 7 15 3 9 40 33 44
Route #5: 12 41 31 21 38 35
Route #6: 4 27 19 37 23 32 28 22 8 39
Cost 678
Time 0.065302
